89 18 83 45 46 47 36 49 19 10 31 
95 92 42 57 15 43 14 38 44 85 99 59 97 87 13 
76 3 79 78 9 66 20 51 1 
52 62 11 64 63 90 32 30 70 
53 40 21 72 75 56 4 55 25 24 80 12 
50 33 81 71 65 35 34 29 68 77 28 
27 69 88 7 48 82 8 84 5 60 6 96 93 61 17 86 16 91 100 37 98 94 
26 54 39 67 23 41 22 74 73 2 58 
